minimize
obj: 1 C_1_ + 1 C_2_ + 1 C_3_ + 1 C_4_ + 1 C_5_ + 1 C_6_ + 1 C_7_ + 1 C_8_ + 1 C_9_ + 1 C_10_ + 1 C_11_ + 1 C_12_ + 1 C_13_ + 1 C_14_ + 1 C_15_ + 1 C_16_ + 1 C_17_ + 1 C_18_ + 1 C_19_ + 1 C_20_ + 1 C_21_ + 1 C_22_ + 1 C_23_ + 1 C_24_ + 1 C_25_
subject to
cNovo: 1 x_2,3,1_ + 1 x_3,2,1_ <= 1
cNovo_1: 1 x_2,3,1_ + 1 x_3,2,1_ <= 1
cNovo_2: 1 x_2,3,2_ + 1 x_3,2,2_ <= 1
cNovo_3: 1 x_2,3,2_ + 1 x_3,2,2_ <= 1
cNovo_4: 1 x_2,3,3_ + 1 x_3,2,3_ <= 1
cNovo_5: 1 x_2,3,3_ + 1 x_3,2,3_ <= 1
cNovo_6: 1 x_2,3,4_ + 1 x_3,2,4_ <= 1
cNovo_7: 1 x_2,3,4_ + 1 x_3,2,4_ <= 1
cNovo_8: 1 x_2,3,5_ + 1 x_3,2,5_ <= 1
cNovo_9: 1 x_2,3,5_ + 1 x_3,2,5_ <= 1
cNovo_10: 1 x_2,3,6_ + 1 x_3,2,6_ <= 1
cNovo_11: 1 x_2,3,6_ + 1 x_3,2,6_ <= 1
cNovo_12: 1 x_2,3,7_ + 1 x_3,2,7_ <= 1
cNovo_13: 1 x_2,3,7_ + 1 x_3,2,7_ <= 1
cNovo_14: 1 x_2,3,8_ + 1 x_3,2,8_ <= 1
cNovo_15: 1 x_2,3,8_ + 1 x_3,2,8_ <= 1
cNovo_16: 1 x_2,3,9_ + 1 x_3,2,9_ <= 1
cNovo_17: 1 x_2,3,9_ + 1 x_3,2,9_ <= 1
cNovo_18: 1 x_2,3,10_ + 1 x_3,2,10_ <= 1
cNovo_19: 1 x_2,3,10_ + 1 x_3,2,10_ <= 1
cNovo_20: 1 x_2,3,11_ + 1 x_3,2,11_ <= 1
cNovo_21: 1 x_2,3,11_ + 1 x_3,2,11_ <= 1
cNovo_22: 1 x_2,3,12_ + 1 x_3,2,12_ <= 1
cNovo_23: 1 x_2,3,12_ + 1 x_3,2,12_ <= 1
cNovo_24: 1 x_2,3,13_ + 1 x_3,2,13_ <= 1
cNovo_25: 1 x_2,3,13_ + 1 x_3,2,13_ <= 1
cNovo_26: 1 x_2,3,14_ + 1 x_3,2,14_ <= 1
cNovo_27: 1 x_2,3,14_ + 1 x_3,2,14_ <= 1
cNovo_28: 1 x_2,3,15_ + 1 x_3,2,15_ <= 1
cNovo_29: 1 x_2,3,15_ + 1 x_3,2,15_ <= 1
cNovo_30: 1 x_2,3,16_ + 1 x_3,2,16_ <= 1
cNovo_31: 1 x_2,3,16_ + 1 x_3,2,16_ <= 1
cNovo_32: 1 x_2,3,17_ + 1 x_3,2,17_ <= 1
cNovo_33: 1 x_2,3,17_ + 1 x_3,2,17_ <= 1
cNovo_34: 1 x_2,3,18_ + 1 x_3,2,18_ <= 1
cNovo_35: 1 x_2,3,18_ + 1 x_3,2,18_ <= 1
cNovo_36: 1 x_2,3,19_ + 1 x_3,2,19_ <= 1
cNovo_37: 1 x_2,3,19_ + 1 x_3,2,19_ <= 1
cNovo_38: 1 x_2,3,20_ + 1 x_3,2,20_ <= 1
cNovo_39: 1 x_2,3,20_ + 1 x_3,2,20_ <= 1
cNovo_40: 1 x_2,3,21_ + 1 x_3,2,21_ <= 1
cNovo_41: 1 x_2,3,21_ + 1 x_3,2,21_ <= 1
cNovo_42: 1 x_2,3,22_ + 1 x_3,2,22_ <= 1
cNovo_43: 1 x_2,3,22_ + 1 x_3,2,22_ <= 1
cNovo_44: 1 x_2,3,23_ + 1 x_3,2,23_ <= 1
cNovo_45: 1 x_2,3,23_ + 1 x_3,2,23_ <= 1
cNovo_46: 1 x_2,3,24_ + 1 x_3,2,24_ <= 1
cNovo_47: 1 x_2,3,24_ + 1 x_3,2,24_ <= 1
cNovo_48: 1 x_2,3,25_ + 1 x_3,2,25_ <= 1
cNovo_49: 1 x_2,3,25_ + 1 x_3,2,25_ <= 1
c8: 1 z_2,1_ - 160 x_1,2,1_ - 160 x_3,2,1_ <= 0
c8_1: 1 z_3,1_ - 150 x_2,3,1_ <= 0
c8_2: 1 z_2,2_ - 240 x_1,2,2_ - 240 x_3,2,2_ <= 0
c8_3: 1 z_3,2_ - 230 x_2,3,2_ <= 0
c8_4: 1 z_2,3_ - 200 x_1,2,3_ - 200 x_3,2,3_ <= 0
c8_5: 1 z_3,3_ - 190 x_2,3,3_ <= 0
c8_6: 1 z_2,4_ - 200 x_1,2,4_ - 200 x_3,2,4_ <= 0
c8_7: 1 z_3,4_ - 190 x_2,3,4_ <= 0
c8_8: 1 z_2,5_ - 240 x_1,2,5_ - 240 x_3,2,5_ <= 0
c8_9: 1 z_3,5_ - 230 x_2,3,5_ <= 0
c8_10: 1 z_2,6_ - 160 x_1,2,6_ - 160 x_3,2,6_ <= 0
c8_11: 1 z_3,6_ - 150 x_2,3,6_ <= 0
c8_12: 1 z_2,7_ - 200 x_1,2,7_ - 200 x_3,2,7_ <= 0
c8_13: 1 z_3,7_ - 190 x_2,3,7_ <= 0
c8_14: 1 z_2,8_ - 160 x_1,2,8_ - 160 x_3,2,8_ <= 0
c8_15: 1 z_3,8_ - 150 x_2,3,8_ <= 0
c8_16: 1 z_2,9_ - 160 x_1,2,9_ - 160 x_3,2,9_ <= 0
c8_17: 1 z_3,9_ - 150 x_2,3,9_ <= 0
c8_18: 1 z_2,10_ - 160 x_1,2,10_ - 160 x_3,2,10_ <= 0
c8_19: 1 z_3,10_ - 150 x_2,3,10_ <= 0
c8_20: 1 z_2,11_ - 160 x_1,2,11_ - 160 x_3,2,11_ <= 0
c8_21: 1 z_3,11_ - 150 x_2,3,11_ <= 0
c8_22: 1 z_2,12_ - 240 x_1,2,12_ - 240 x_3,2,12_ <= 0
c8_23: 1 z_3,12_ - 230 x_2,3,12_ <= 0
c8_24: 1 z_2,13_ - 240 x_1,2,13_ - 240 x_3,2,13_ <= 0
c8_25: 1 z_3,13_ - 230 x_2,3,13_ <= 0
c8_26: 1 z_2,14_ - 200 x_1,2,14_ - 200 x_3,2,14_ <= 0
c8_27: 1 z_3,14_ - 190 x_2,3,14_ <= 0
c8_28: 1 z_2,15_ - 200 x_1,2,15_ - 200 x_3,2,15_ <= 0
c8_29: 1 z_3,15_ - 190 x_2,3,15_ <= 0
c8_30: 1 z_2,16_ - 160 x_1,2,16_ - 160 x_3,2,16_ <= 0
c8_31: 1 z_3,16_ - 150 x_2,3,16_ <= 0
c8_32: 1 z_2,17_ - 160 x_1,2,17_ - 160 x_3,2,17_ <= 0
c8_33: 1 z_3,17_ - 150 x_2,3,17_ <= 0
c8_34: 1 z_2,18_ - 240 x_1,2,18_ - 240 x_3,2,18_ <= 0
c8_35: 1 z_3,18_ - 230 x_2,3,18_ <= 0
c8_36: 1 z_2,19_ - 160 x_1,2,19_ - 160 x_3,2,19_ <= 0
c8_37: 1 z_3,19_ - 150 x_2,3,19_ <= 0
c8_38: 1 z_2,20_ - 160 x_1,2,20_ - 160 x_3,2,20_ <= 0
c8_39: 1 z_3,20_ - 150 x_2,3,20_ <= 0
c8_40: 1 z_2,21_ - 160 x_1,2,21_ - 160 x_3,2,21_ <= 0
c8_41: 1 z_3,21_ - 150 x_2,3,21_ <= 0
c8_42: 1 z_2,22_ - 160 x_1,2,22_ - 160 x_3,2,22_ <= 0
c8_43: 1 z_3,22_ - 150 x_2,3,22_ <= 0
c8_44: 1 z_2,23_ - 240 x_1,2,23_ - 240 x_3,2,23_ <= 0
c8_45: 1 z_3,23_ - 230 x_2,3,23_ <= 0
c8_46: 1 z_2,24_ - 240 x_1,2,24_ - 240 x_3,2,24_ <= 0
c8_47: 1 z_3,24_ - 230 x_2,3,24_ <= 0
c8_48: 1 z_2,25_ - 240 x_1,2,25_ - 240 x_3,2,25_ <= 0
c8_49: 1 z_3,25_ - 230 x_2,3,25_ <= 0
c7: -1 z_2,1_ + 1 z_3,1_ - 999999 x_2,3,1_ >= -999989
c7_1: 1 z_2,1_ - 1 z_3,1_ - 999999 x_3,2,1_ >= -1000009
c7_2: -1 z_1,1_ + 1 z_2,1_ - 999999 x_1,2,1_ >= -999999
c7_3: -1 z_1,1_ + 1 z_4,1_ - 999999 x_1,4,1_ >= -999999
c7_4: -1 z_3,1_ + 1 z_4,1_ - 999999 x_3,4,1_ >= -1000009
c7_5: -1 z_2,2_ + 1 z_3,2_ - 999999 x_2,3,2_ >= -999989
c7_6: 1 z_2,2_ - 1 z_3,2_ - 999999 x_3,2,2_ >= -1000009
c7_7: -1 z_1,2_ + 1 z_2,2_ - 999999 x_1,2,2_ >= -999999
c7_8: -1 z_1,2_ + 1 z_4,2_ - 999999 x_1,4,2_ >= -999999
c7_9: -1 z_3,2_ + 1 z_4,2_ - 999999 x_3,4,2_ >= -1000009
c7_10: -1 z_2,3_ + 1 z_3,3_ - 999999 x_2,3,3_ >= -999989
c7_11: 1 z_2,3_ - 1 z_3,3_ - 999999 x_3,2,3_ >= -1000009
c7_12: -1 z_1,3_ + 1 z_2,3_ - 999999 x_1,2,3_ >= -999999
c7_13: -1 z_1,3_ + 1 z_4,3_ - 999999 x_1,4,3_ >= -999999
c7_14: -1 z_3,3_ + 1 z_4,3_ - 999999 x_3,4,3_ >= -1000009
c7_15: -1 z_2,4_ + 1 z_3,4_ - 999999 x_2,3,4_ >= -999989
c7_16: 1 z_2,4_ - 1 z_3,4_ - 999999 x_3,2,4_ >= -1000009
c7_17: -1 z_1,4_ + 1 z_2,4_ - 999999 x_1,2,4_ >= -999999
c7_18: -1 z_1,4_ + 1 z_4,4_ - 999999 x_1,4,4_ >= -999999
c7_19: -1 z_3,4_ + 1 z_4,4_ - 999999 x_3,4,4_ >= -1000009
c7_20: -1 z_2,5_ + 1 z_3,5_ - 999999 x_2,3,5_ >= -999989
c7_21: 1 z_2,5_ - 1 z_3,5_ - 999999 x_3,2,5_ >= -1000009
c7_22: -1 z_1,5_ + 1 z_2,5_ - 999999 x_1,2,5_ >= -999999
c7_23: -1 z_1,5_ + 1 z_4,5_ - 999999 x_1,4,5_ >= -999999
c7_24: -1 z_3,5_ + 1 z_4,5_ - 999999 x_3,4,5_ >= -1000009
c7_25: -1 z_2,6_ + 1 z_3,6_ - 999999 x_2,3,6_ >= -999989
c7_26: 1 z_2,6_ - 1 z_3,6_ - 999999 x_3,2,6_ >= -1000009
c7_27: -1 z_1,6_ + 1 z_2,6_ - 999999 x_1,2,6_ >= -999999
c7_28: -1 z_1,6_ + 1 z_4,6_ - 999999 x_1,4,6_ >= -999999
c7_29: -1 z_3,6_ + 1 z_4,6_ - 999999 x_3,4,6_ >= -1000009
c7_30: -1 z_2,7_ + 1 z_3,7_ - 999999 x_2,3,7_ >= -999989
c7_31: 1 z_2,7_ - 1 z_3,7_ - 999999 x_3,2,7_ >= -1000009
c7_32: -1 z_1,7_ + 1 z_2,7_ - 999999 x_1,2,7_ >= -999999
c7_33: -1 z_1,7_ + 1 z_4,7_ - 999999 x_1,4,7_ >= -999999
c7_34: -1 z_3,7_ + 1 z_4,7_ - 999999 x_3,4,7_ >= -1000009
c7_35: -1 z_2,8_ + 1 z_3,8_ - 999999 x_2,3,8_ >= -999989
c7_36: 1 z_2,8_ - 1 z_3,8_ - 999999 x_3,2,8_ >= -1000009
c7_37: -1 z_1,8_ + 1 z_2,8_ - 999999 x_1,2,8_ >= -999999
c7_38: -1 z_1,8_ + 1 z_4,8_ - 999999 x_1,4,8_ >= -999999
c7_39: -1 z_3,8_ + 1 z_4,8_ - 999999 x_3,4,8_ >= -1000009
c7_40: -1 z_2,9_ + 1 z_3,9_ - 999999 x_2,3,9_ >= -999989
c7_41: 1 z_2,9_ - 1 z_3,9_ - 999999 x_3,2,9_ >= -1000009
c7_42: -1 z_1,9_ + 1 z_2,9_ - 999999 x_1,2,9_ >= -999999
c7_43: -1 z_1,9_ + 1 z_4,9_ - 999999 x_1,4,9_ >= -999999
c7_44: -1 z_3,9_ + 1 z_4,9_ - 999999 x_3,4,9_ >= -1000009
c7_45: -1 z_2,10_ + 1 z_3,10_ - 999999 x_2,3,10_ >= -999989
c7_46: 1 z_2,10_ - 1 z_3,10_ - 999999 x_3,2,10_ >= -1000009
c7_47: -1 z_1,10_ + 1 z_2,10_ - 999999 x_1,2,10_ >= -999999
c7_48: -1 z_1,10_ + 1 z_4,10_ - 999999 x_1,4,10_ >= -999999
c7_49: -1 z_3,10_ + 1 z_4,10_ - 999999 x_3,4,10_ >= -1000009
c7_50: -1 z_2,11_ + 1 z_3,11_ - 999999 x_2,3,11_ >= -999989
c7_51: 1 z_2,11_ - 1 z_3,11_ - 999999 x_3,2,11_ >= -1000009
c7_52: -1 z_1,11_ + 1 z_2,11_ - 999999 x_1,2,11_ >= -999999
c7_53: -1 z_1,11_ + 1 z_4,11_ - 999999 x_1,4,11_ >= -999999
c7_54: -1 z_3,11_ + 1 z_4,11_ - 999999 x_3,4,11_ >= -1000009
c7_55: -1 z_2,12_ + 1 z_3,12_ - 999999 x_2,3,12_ >= -999989
c7_56: 1 z_2,12_ - 1 z_3,12_ - 999999 x_3,2,12_ >= -1000009
c7_57: -1 z_1,12_ + 1 z_2,12_ - 999999 x_1,2,12_ >= -999999
c7_58: -1 z_1,12_ + 1 z_4,12_ - 999999 x_1,4,12_ >= -999999
c7_59: -1 z_3,12_ + 1 z_4,12_ - 999999 x_3,4,12_ >= -1000009
c7_60: -1 z_2,13_ + 1 z_3,13_ - 999999 x_2,3,13_ >= -999989
c7_61: 1 z_2,13_ - 1 z_3,13_ - 999999 x_3,2,13_ >= -1000009
c7_62: -1 z_1,13_ + 1 z_2,13_ - 999999 x_1,2,13_ >= -999999
c7_63: -1 z_1,13_ + 1 z_4,13_ - 999999 x_1,4,13_ >= -999999
c7_64: -1 z_3,13_ + 1 z_4,13_ - 999999 x_3,4,13_ >= -1000009
c7_65: -1 z_2,14_ + 1 z_3,14_ - 999999 x_2,3,14_ >= -999989
c7_66: 1 z_2,14_ - 1 z_3,14_ - 999999 x_3,2,14_ >= -1000009
c7_67: -1 z_1,14_ + 1 z_2,14_ - 999999 x_1,2,14_ >= -999999
c7_68: -1 z_1,14_ + 1 z_4,14_ - 999999 x_1,4,14_ >= -999999
c7_69: -1 z_3,14_ + 1 z_4,14_ - 999999 x_3,4,14_ >= -1000009
c7_70: -1 z_2,15_ + 1 z_3,15_ - 999999 x_2,3,15_ >= -999989
c7_71: 1 z_2,15_ - 1 z_3,15_ - 999999 x_3,2,15_ >= -1000009
c7_72: -1 z_1,15_ + 1 z_2,15_ - 999999 x_1,2,15_ >= -999999
c7_73: -1 z_1,15_ + 1 z_4,15_ - 999999 x_1,4,15_ >= -999999
c7_74: -1 z_3,15_ + 1 z_4,15_ - 999999 x_3,4,15_ >= -1000009
c7_75: -1 z_2,16_ + 1 z_3,16_ - 999999 x_2,3,16_ >= -999989
c7_76: 1 z_2,16_ - 1 z_3,16_ - 999999 x_3,2,16_ >= -1000009
c7_77: -1 z_1,16_ + 1 z_2,16_ - 999999 x_1,2,16_ >= -999999
c7_78: -1 z_1,16_ + 1 z_4,16_ - 999999 x_1,4,16_ >= -999999
c7_79: -1 z_3,16_ + 1 z_4,16_ - 999999 x_3,4,16_ >= -1000009
c7_80: -1 z_2,17_ + 1 z_3,17_ - 999999 x_2,3,17_ >= -999989
c7_81: 1 z_2,17_ - 1 z_3,17_ - 999999 x_3,2,17_ >= -1000009
c7_82: -1 z_1,17_ + 1 z_2,17_ - 999999 x_1,2,17_ >= -999999
c7_83: -1 z_1,17_ + 1 z_4,17_ - 999999 x_1,4,17_ >= -999999
c7_84: -1 z_3,17_ + 1 z_4,17_ - 999999 x_3,4,17_ >= -1000009
c7_85: -1 z_2,18_ + 1 z_3,18_ - 999999 x_2,3,18_ >= -999989
c7_86: 1 z_2,18_ - 1 z_3,18_ - 999999 x_3,2,18_ >= -1000009
c7_87: -1 z_1,18_ + 1 z_2,18_ - 999999 x_1,2,18_ >= -999999
c7_88: -1 z_1,18_ + 1 z_4,18_ - 999999 x_1,4,18_ >= -999999
c7_89: -1 z_3,18_ + 1 z_4,18_ - 999999 x_3,4,18_ >= -1000009
c7_90: -1 z_2,19_ + 1 z_3,19_ - 999999 x_2,3,19_ >= -999989
c7_91: 1 z_2,19_ - 1 z_3,19_ - 999999 x_3,2,19_ >= -1000009
c7_92: -1 z_1,19_ + 1 z_2,19_ - 999999 x_1,2,19_ >= -999999
c7_93: -1 z_1,19_ + 1 z_4,19_ - 999999 x_1,4,19_ >= -999999
c7_94: -1 z_3,19_ + 1 z_4,19_ - 999999 x_3,4,19_ >= -1000009
c7_95: -1 z_2,20_ + 1 z_3,20_ - 999999 x_2,3,20_ >= -999989
c7_96: 1 z_2,20_ - 1 z_3,20_ - 999999 x_3,2,20_ >= -1000009
c7_97: -1 z_1,20_ + 1 z_2,20_ - 999999 x_1,2,20_ >= -999999
c7_98: -1 z_1,20_ + 1 z_4,20_ - 999999 x_1,4,20_ >= -999999
c7_99: -1 z_3,20_ + 1 z_4,20_ - 999999 x_3,4,20_ >= -1000009
c7_100: -1 z_2,21_ + 1 z_3,21_ - 999999 x_2,3,21_ >= -999989
c7_101: 1 z_2,21_ - 1 z_3,21_ - 999999 x_3,2,21_ >= -1000009
c7_102: -1 z_1,21_ + 1 z_2,21_ - 999999 x_1,2,21_ >= -999999
c7_103: -1 z_1,21_ + 1 z_4,21_ - 999999 x_1,4,21_ >= -999999
c7_104: -1 z_3,21_ + 1 z_4,21_ - 999999 x_3,4,21_ >= -1000009
c7_105: -1 z_2,22_ + 1 z_3,22_ - 999999 x_2,3,22_ >= -999989
c7_106: 1 z_2,22_ - 1 z_3,22_ - 999999 x_3,2,22_ >= -1000009
c7_107: -1 z_1,22_ + 1 z_2,22_ - 999999 x_1,2,22_ >= -999999
c7_108: -1 z_1,22_ + 1 z_4,22_ - 999999 x_1,4,22_ >= -999999
c7_109: -1 z_3,22_ + 1 z_4,22_ - 999999 x_3,4,22_ >= -1000009
c7_110: -1 z_2,23_ + 1 z_3,23_ - 999999 x_2,3,23_ >= -999989
c7_111: 1 z_2,23_ - 1 z_3,23_ - 999999 x_3,2,23_ >= -1000009
c7_112: -1 z_1,23_ + 1 z_2,23_ - 999999 x_1,2,23_ >= -999999
c7_113: -1 z_1,23_ + 1 z_4,23_ - 999999 x_1,4,23_ >= -999999
c7_114: -1 z_3,23_ + 1 z_4,23_ - 999999 x_3,4,23_ >= -1000009
c7_115: -1 z_2,24_ + 1 z_3,24_ - 999999 x_2,3,24_ >= -999989
c7_116: 1 z_2,24_ - 1 z_3,24_ - 999999 x_3,2,24_ >= -1000009
c7_117: -1 z_1,24_ + 1 z_2,24_ - 999999 x_1,2,24_ >= -999999
c7_118: -1 z_1,24_ + 1 z_4,24_ - 999999 x_1,4,24_ >= -999999
c7_119: -1 z_3,24_ + 1 z_4,24_ - 999999 x_3,4,24_ >= -1000009
c7_120: -1 z_2,25_ + 1 z_3,25_ - 999999 x_2,3,25_ >= -999989
c7_121: 1 z_2,25_ - 1 z_3,25_ - 999999 x_3,2,25_ >= -1000009
c7_122: -1 z_1,25_ + 1 z_2,25_ - 999999 x_1,2,25_ >= -999999
c7_123: -1 z_1,25_ + 1 z_4,25_ - 999999 x_1,4,25_ >= -999999
c7_124: -1 z_3,25_ + 1 z_4,25_ - 999999 x_3,4,25_ >= -1000009
c9: 1 z_2,1_ - 10 x_1,2,1_ - 10 x_3,2,1_ >= 0
c9_1: 1 z_2,2_ - 10 x_1,2,2_ - 10 x_3,2,2_ >= 0
c9_2: 1 z_2,3_ - 10 x_1,2,3_ - 10 x_3,2,3_ >= 0
c9_3: 1 z_2,4_ - 10 x_1,2,4_ - 10 x_3,2,4_ >= 0
c9_4: 1 z_2,5_ - 10 x_1,2,5_ - 10 x_3,2,5_ >= 0
c9_5: 1 z_2,6_ - 10 x_1,2,6_ - 10 x_3,2,6_ >= 0
c9_6: 1 z_2,7_ - 10 x_1,2,7_ - 10 x_3,2,7_ >= 0
c9_7: 1 z_2,8_ - 10 x_1,2,8_ - 10 x_3,2,8_ >= 0
c9_8: 1 z_2,9_ - 10 x_1,2,9_ - 10 x_3,2,9_ >= 0
c9_9: 1 z_2,10_ - 10 x_1,2,10_ - 10 x_3,2,10_ >= 0
c9_10: 1 z_2,11_ - 10 x_1,2,11_ - 10 x_3,2,11_ >= 0
c9_11: 1 z_2,12_ - 10 x_1,2,12_ - 10 x_3,2,12_ >= 0
c9_12: 1 z_2,13_ - 10 x_1,2,13_ - 10 x_3,2,13_ >= 0
c9_13: 1 z_2,14_ - 10 x_1,2,14_ - 10 x_3,2,14_ >= 0
c9_14: 1 z_2,15_ - 10 x_1,2,15_ - 10 x_3,2,15_ >= 0
c9_15: 1 z_2,16_ - 10 x_1,2,16_ - 10 x_3,2,16_ >= 0
c9_16: 1 z_2,17_ - 10 x_1,2,17_ - 10 x_3,2,17_ >= 0
c9_17: 1 z_2,18_ - 10 x_1,2,18_ - 10 x_3,2,18_ >= 0
c9_18: 1 z_2,19_ - 10 x_1,2,19_ - 10 x_3,2,19_ >= 0
c9_19: 1 z_2,20_ - 10 x_1,2,20_ - 10 x_3,2,20_ >= 0
c9_20: 1 z_2,21_ - 10 x_1,2,21_ - 10 x_3,2,21_ >= 0
c9_21: 1 z_2,22_ - 10 x_1,2,22_ - 10 x_3,2,22_ >= 0
c9_22: 1 z_2,23_ - 10 x_1,2,23_ - 10 x_3,2,23_ >= 0
c9_23: 1 z_2,24_ - 10 x_1,2,24_ - 10 x_3,2,24_ >= 0
c9_24: 1 z_2,25_ - 10 x_1,2,25_ - 10 x_3,2,25_ >= 0
c1: 1 x_1,2,1_ + 1 x_1,4,1_ = 1
c1_1: 1 x_1,2,2_ + 1 x_1,4,2_ = 1
c1_2: 1 x_1,2,3_ + 1 x_1,4,3_ = 1
c1_3: 1 x_1,2,4_ + 1 x_1,4,4_ = 1
c1_4: 1 x_1,2,5_ + 1 x_1,4,5_ = 1
c1_5: 1 x_1,2,6_ + 1 x_1,4,6_ = 1
c1_6: 1 x_1,2,7_ + 1 x_1,4,7_ = 1
c1_7: 1 x_1,2,8_ + 1 x_1,4,8_ = 1
c1_8: 1 x_1,2,9_ + 1 x_1,4,9_ = 1
c1_9: 1 x_1,2,10_ + 1 x_1,4,10_ = 1
c1_10: 1 x_1,2,11_ + 1 x_1,4,11_ = 1
c1_11: 1 x_1,2,12_ + 1 x_1,4,12_ = 1
c1_12: 1 x_1,2,13_ + 1 x_1,4,13_ = 1
c1_13: 1 x_1,2,14_ + 1 x_1,4,14_ = 1
c1_14: 1 x_1,2,15_ + 1 x_1,4,15_ = 1
c1_15: 1 x_1,2,16_ + 1 x_1,4,16_ = 1
c1_16: 1 x_1,2,17_ + 1 x_1,4,17_ = 1
c1_17: 1 x_1,2,18_ + 1 x_1,4,18_ = 1
c1_18: 1 x_1,2,19_ + 1 x_1,4,19_ = 1
c1_19: 1 x_1,2,20_ + 1 x_1,4,20_ = 1
c1_20: 1 x_1,2,21_ + 1 x_1,4,21_ = 1
c1_21: 1 x_1,2,22_ + 1 x_1,4,22_ = 1
c1_22: 1 x_1,2,23_ + 1 x_1,4,23_ = 1
c1_23: 1 x_1,2,24_ + 1 x_1,4,24_ = 1
c1_24: 1 x_1,2,25_ + 1 x_1,4,25_ = 1
c2: 1 x_1,2,1_ - 1 x_2,3,1_ + 1 x_3,2,1_ = 0
c2_1: 1 x_2,3,1_ - 1 x_3,2,1_ - 1 x_3,4,1_ = 0
c2_2: 1 x_1,2,2_ - 1 x_2,3,2_ + 1 x_3,2,2_ = 0
c2_3: 1 x_2,3,2_ - 1 x_3,2,2_ - 1 x_3,4,2_ = 0
c2_4: 1 x_1,2,3_ - 1 x_2,3,3_ + 1 x_3,2,3_ = 0
c2_5: 1 x_2,3,3_ - 1 x_3,2,3_ - 1 x_3,4,3_ = 0
c2_6: 1 x_1,2,4_ - 1 x_2,3,4_ + 1 x_3,2,4_ = 0
c2_7: 1 x_2,3,4_ - 1 x_3,2,4_ - 1 x_3,4,4_ = 0
c2_8: 1 x_1,2,5_ - 1 x_2,3,5_ + 1 x_3,2,5_ = 0
c2_9: 1 x_2,3,5_ - 1 x_3,2,5_ - 1 x_3,4,5_ = 0
c2_10: 1 x_1,2,6_ - 1 x_2,3,6_ + 1 x_3,2,6_ = 0
c2_11: 1 x_2,3,6_ - 1 x_3,2,6_ - 1 x_3,4,6_ = 0
c2_12: 1 x_1,2,7_ - 1 x_2,3,7_ + 1 x_3,2,7_ = 0
c2_13: 1 x_2,3,7_ - 1 x_3,2,7_ - 1 x_3,4,7_ = 0
c2_14: 1 x_1,2,8_ - 1 x_2,3,8_ + 1 x_3,2,8_ = 0
c2_15: 1 x_2,3,8_ - 1 x_3,2,8_ - 1 x_3,4,8_ = 0
c2_16: 1 x_1,2,9_ - 1 x_2,3,9_ + 1 x_3,2,9_ = 0
c2_17: 1 x_2,3,9_ - 1 x_3,2,9_ - 1 x_3,4,9_ = 0
c2_18: 1 x_1,2,10_ - 1 x_2,3,10_ + 1 x_3,2,10_ = 0
c2_19: 1 x_2,3,10_ - 1 x_3,2,10_ - 1 x_3,4,10_ = 0
c2_20: 1 x_1,2,11_ - 1 x_2,3,11_ + 1 x_3,2,11_ = 0
c2_21: 1 x_2,3,11_ - 1 x_3,2,11_ - 1 x_3,4,11_ = 0
c2_22: 1 x_1,2,12_ - 1 x_2,3,12_ + 1 x_3,2,12_ = 0
c2_23: 1 x_2,3,12_ - 1 x_3,2,12_ - 1 x_3,4,12_ = 0
c2_24: 1 x_1,2,13_ - 1 x_2,3,13_ + 1 x_3,2,13_ = 0
c2_25: 1 x_2,3,13_ - 1 x_3,2,13_ - 1 x_3,4,13_ = 0
c2_26: 1 x_1,2,14_ - 1 x_2,3,14_ + 1 x_3,2,14_ = 0
c2_27: 1 x_2,3,14_ - 1 x_3,2,14_ - 1 x_3,4,14_ = 0
c2_28: 1 x_1,2,15_ - 1 x_2,3,15_ + 1 x_3,2,15_ = 0
c2_29: 1 x_2,3,15_ - 1 x_3,2,15_ - 1 x_3,4,15_ = 0
c2_30: 1 x_1,2,16_ - 1 x_2,3,16_ + 1 x_3,2,16_ = 0
c2_31: 1 x_2,3,16_ - 1 x_3,2,16_ - 1 x_3,4,16_ = 0
c2_32: 1 x_1,2,17_ - 1 x_2,3,17_ + 1 x_3,2,17_ = 0
c2_33: 1 x_2,3,17_ - 1 x_3,2,17_ - 1 x_3,4,17_ = 0
c2_34: 1 x_1,2,18_ - 1 x_2,3,18_ + 1 x_3,2,18_ = 0
c2_35: 1 x_2,3,18_ - 1 x_3,2,18_ - 1 x_3,4,18_ = 0
c2_36: 1 x_1,2,19_ - 1 x_2,3,19_ + 1 x_3,2,19_ = 0
c2_37: 1 x_2,3,19_ - 1 x_3,2,19_ - 1 x_3,4,19_ = 0
c2_38: 1 x_1,2,20_ - 1 x_2,3,20_ + 1 x_3,2,20_ = 0
c2_39: 1 x_2,3,20_ - 1 x_3,2,20_ - 1 x_3,4,20_ = 0
c2_40: 1 x_1,2,21_ - 1 x_2,3,21_ + 1 x_3,2,21_ = 0
c2_41: 1 x_2,3,21_ - 1 x_3,2,21_ - 1 x_3,4,21_ = 0
c2_42: 1 x_1,2,22_ - 1 x_2,3,22_ + 1 x_3,2,22_ = 0
c2_43: 1 x_2,3,22_ - 1 x_3,2,22_ - 1 x_3,4,22_ = 0
c2_44: 1 x_1,2,23_ - 1 x_2,3,23_ + 1 x_3,2,23_ = 0
c2_45: 1 x_2,3,23_ - 1 x_3,2,23_ - 1 x_3,4,23_ = 0
c2_46: 1 x_1,2,24_ - 1 x_2,3,24_ + 1 x_3,2,24_ = 0
c2_47: 1 x_2,3,24_ - 1 x_3,2,24_ - 1 x_3,4,24_ = 0
c2_48: 1 x_1,2,25_ - 1 x_2,3,25_ + 1 x_3,2,25_ = 0
c2_49: 1 x_2,3,25_ - 1 x_3,2,25_ - 1 x_3,4,25_ = 0
c3: 1 x_1,4,1_ + 1 x_3,4,1_ = 1
c3_1: 1 x_1,4,2_ + 1 x_3,4,2_ = 1
c3_2: 1 x_1,4,3_ + 1 x_3,4,3_ = 1
c3_3: 1 x_1,4,4_ + 1 x_3,4,4_ = 1
c3_4: 1 x_1,4,5_ + 1 x_3,4,5_ = 1
c3_5: 1 x_1,4,6_ + 1 x_3,4,6_ = 1
c3_6: 1 x_1,4,7_ + 1 x_3,4,7_ = 1
c3_7: 1 x_1,4,8_ + 1 x_3,4,8_ = 1
c3_8: 1 x_1,4,9_ + 1 x_3,4,9_ = 1
c3_9: 1 x_1,4,10_ + 1 x_3,4,10_ = 1
c3_10: 1 x_1,4,11_ + 1 x_3,4,11_ = 1
c3_11: 1 x_1,4,12_ + 1 x_3,4,12_ = 1
c3_12: 1 x_1,4,13_ + 1 x_3,4,13_ = 1
c3_13: 1 x_1,4,14_ + 1 x_3,4,14_ = 1
c3_14: 1 x_1,4,15_ + 1 x_3,4,15_ = 1
c3_15: 1 x_1,4,16_ + 1 x_3,4,16_ = 1
c3_16: 1 x_1,4,17_ + 1 x_3,4,17_ = 1
c3_17: 1 x_1,4,18_ + 1 x_3,4,18_ = 1
c3_18: 1 x_1,4,19_ + 1 x_3,4,19_ = 1
c3_19: 1 x_1,4,20_ + 1 x_3,4,20_ = 1
c3_20: 1 x_1,4,21_ + 1 x_3,4,21_ = 1
c3_21: 1 x_1,4,22_ + 1 x_3,4,22_ = 1
c3_22: 1 x_1,4,23_ + 1 x_3,4,23_ = 1
c3_23: 1 x_1,4,24_ + 1 x_3,4,24_ = 1
c3_24: 1 x_1,4,25_ + 1 x_3,4,25_ = 1
c4: 1 x_1,2,1_ + 1 x_1,2,2_ + 1 x_1,2,3_ + 1 x_1,2,4_ + 1 x_1,2,5_ + 1 x_1,2,6_ + 1 x_1,2,7_ + 1 x_1,2,8_ + 1 x_1,2,9_ + 1 x_1,2,10_ + 1 x_1,2,11_ + 1 x_1,2,12_ + 1 x_1,2,13_ + 1 x_1,2,14_ + 1 x_1,2,15_ + 1 x_1,2,16_ + 1 x_1,2,17_ + 1 x_1,2,18_ + 1 x_1,2,19_ + 1 x_1,2,20_ + 1 x_1,2,21_ + 1 x_1,2,22_ + 1 x_1,2,23_ + 1 x_1,2,24_ + 1 x_1,2,25_ + 1 x_3,2,1_ + 1 x_3,2,2_ + 1 x_3,2,3_ + 1 x_3,2,4_ + 1 x_3,2,5_ + 1 x_3,2,6_ + 1 x_3,2,7_ + 1 x_3,2,8_ + 1 x_3,2,9_ + 1 x_3,2,10_ + 1 x_3,2,11_ + 1 x_3,2,12_ + 1 x_3,2,13_ + 1 x_3,2,14_ + 1 x_3,2,15_ + 1 x_3,2,16_ + 1 x_3,2,17_ + 1 x_3,2,18_ + 1 x_3,2,19_ + 1 x_3,2,20_ + 1 x_3,2,21_ + 1 x_3,2,22_ + 1 x_3,2,23_ + 1 x_3,2,24_ + 1 x_3,2,25_ = 1
c4_1: 1 x_2,3,1_ + 1 x_2,3,2_ + 1 x_2,3,3_ + 1 x_2,3,4_ + 1 x_2,3,5_ + 1 x_2,3,6_ + 1 x_2,3,7_ + 1 x_2,3,8_ + 1 x_2,3,9_ + 1 x_2,3,10_ + 1 x_2,3,11_ + 1 x_2,3,12_ + 1 x_2,3,13_ + 1 x_2,3,14_ + 1 x_2,3,15_ + 1 x_2,3,16_ + 1 x_2,3,17_ + 1 x_2,3,18_ + 1 x_2,3,19_ + 1 x_2,3,20_ + 1 x_2,3,21_ + 1 x_2,3,22_ + 1 x_2,3,23_ + 1 x_2,3,24_ + 1 x_2,3,25_ = 1
c5: 1 x_1,2,1_ - 1 x_2,3,1_ + 1 x_3,2,1_ = 0
c5_1: 1 x_1,2,2_ - 1 x_2,3,2_ + 1 x_3,2,2_ = 0
c5_2: 1 x_1,2,3_ - 1 x_2,3,3_ + 1 x_3,2,3_ = 0
c5_3: 1 x_1,2,4_ - 1 x_2,3,4_ + 1 x_3,2,4_ = 0
c5_4: 1 x_1,2,5_ - 1 x_2,3,5_ + 1 x_3,2,5_ = 0
c5_5: 1 x_1,2,6_ - 1 x_2,3,6_ + 1 x_3,2,6_ = 0
c5_6: 1 x_1,2,7_ - 1 x_2,3,7_ + 1 x_3,2,7_ = 0
c5_7: 1 x_1,2,8_ - 1 x_2,3,8_ + 1 x_3,2,8_ = 0
c5_8: 1 x_1,2,9_ - 1 x_2,3,9_ + 1 x_3,2,9_ = 0
c5_9: 1 x_1,2,10_ - 1 x_2,3,10_ + 1 x_3,2,10_ = 0
c5_10: 1 x_1,2,11_ - 1 x_2,3,11_ + 1 x_3,2,11_ = 0
c5_11: 1 x_1,2,12_ - 1 x_2,3,12_ + 1 x_3,2,12_ = 0
c5_12: 1 x_1,2,13_ - 1 x_2,3,13_ + 1 x_3,2,13_ = 0
c5_13: 1 x_1,2,14_ - 1 x_2,3,14_ + 1 x_3,2,14_ = 0
c5_14: 1 x_1,2,15_ - 1 x_2,3,15_ + 1 x_3,2,15_ = 0
c5_15: 1 x_1,2,16_ - 1 x_2,3,16_ + 1 x_3,2,16_ = 0
c5_16: 1 x_1,2,17_ - 1 x_2,3,17_ + 1 x_3,2,17_ = 0
c5_17: 1 x_1,2,18_ - 1 x_2,3,18_ + 1 x_3,2,18_ = 0
c5_18: 1 x_1,2,19_ - 1 x_2,3,19_ + 1 x_3,2,19_ = 0
c5_19: 1 x_1,2,20_ - 1 x_2,3,20_ + 1 x_3,2,20_ = 0
c5_20: 1 x_1,2,21_ - 1 x_2,3,21_ + 1 x_3,2,21_ = 0
c5_21: 1 x_1,2,22_ - 1 x_2,3,22_ + 1 x_3,2,22_ = 0
c5_22: 1 x_1,2,23_ - 1 x_2,3,23_ + 1 x_3,2,23_ = 0
c5_23: 1 x_1,2,24_ - 1 x_2,3,24_ + 1 x_3,2,24_ = 0
c5_24: 1 x_1,2,25_ - 1 x_2,3,25_ + 1 x_3,2,25_ = 0
c6: 1 z_1,1_ = 0
c6_1: 1 z_1,2_ = 0
c6_2: 1 z_1,3_ = 0
c6_3: 1 z_1,4_ = 0
c6_4: 1 z_1,5_ = 0
c6_5: 1 z_1,6_ = 0
c6_6: 1 z_1,7_ = 0
c6_7: 1 z_1,8_ = 0
c6_8: 1 z_1,9_ = 0
c6_9: 1 z_1,10_ = 0
c6_10: 1 z_1,11_ = 0
c6_11: 1 z_1,12_ = 0
c6_12: 1 z_1,13_ = 0
c6_13: 1 z_1,14_ = 0
c6_14: 1 z_1,15_ = 0
c6_15: 1 z_1,16_ = 0
c6_16: 1 z_1,17_ = 0
c6_17: 1 z_1,18_ = 0
c6_18: 1 z_1,19_ = 0
c6_19: 1 z_1,20_ = 0
c6_20: 1 z_1,21_ = 0
c6_21: 1 z_1,22_ = 0
c6_22: 1 z_1,23_ = 0
c6_23: 1 z_1,24_ = 0
c6_24: 1 z_1,25_ = 0
Bounds
z_1,1_ >= 0
z_2,1_ >= 0
z_3,1_ >= 0
z_4,1_ >= 0
z_1,2_ >= 0
z_2,2_ >= 0
z_3,2_ >= 0
z_4,2_ >= 0
z_1,3_ >= 0
z_2,3_ >= 0
z_3,3_ >= 0
z_4,3_ >= 0
z_1,4_ >= 0
z_2,4_ >= 0
z_3,4_ >= 0
z_4,4_ >= 0
z_1,5_ >= 0
z_2,5_ >= 0
z_3,5_ >= 0
z_4,5_ >= 0
z_1,6_ >= 0
z_2,6_ >= 0
z_3,6_ >= 0
z_4,6_ >= 0
z_1,7_ >= 0
z_2,7_ >= 0
z_3,7_ >= 0
z_4,7_ >= 0
z_1,8_ >= 0
z_2,8_ >= 0
z_3,8_ >= 0
z_4,8_ >= 0
z_1,9_ >= 0
z_2,9_ >= 0
z_3,9_ >= 0
z_4,9_ >= 0
z_1,10_ >= 0
z_2,10_ >= 0
z_3,10_ >= 0
z_4,10_ >= 0
z_1,11_ >= 0
z_2,11_ >= 0
z_3,11_ >= 0
z_4,11_ >= 0
z_1,12_ >= 0
z_2,12_ >= 0
z_3,12_ >= 0
z_4,12_ >= 0
z_1,13_ >= 0
z_2,13_ >= 0
z_3,13_ >= 0
z_4,13_ >= 0
z_1,14_ >= 0
z_2,14_ >= 0
z_3,14_ >= 0
z_4,14_ >= 0
z_1,15_ >= 0
z_2,15_ >= 0
z_3,15_ >= 0
z_4,15_ >= 0
z_1,16_ >= 0
z_2,16_ >= 0
z_3,16_ >= 0
z_4,16_ >= 0
z_1,17_ >= 0
z_2,17_ >= 0
z_3,17_ >= 0
z_4,17_ >= 0
z_1,18_ >= 0
z_2,18_ >= 0
z_3,18_ >= 0
z_4,18_ >= 0
z_1,19_ >= 0
z_2,19_ >= 0
z_3,19_ >= 0
z_4,19_ >= 0
z_1,20_ >= 0
z_2,20_ >= 0
z_3,20_ >= 0
z_4,20_ >= 0
z_1,21_ >= 0
z_2,21_ >= 0
z_3,21_ >= 0
z_4,21_ >= 0
z_1,22_ >= 0
z_2,22_ >= 0
z_3,22_ >= 0
z_4,22_ >= 0
z_1,23_ >= 0
z_2,23_ >= 0
z_3,23_ >= 0
z_4,23_ >= 0
z_1,24_ >= 0
z_2,24_ >= 0
z_3,24_ >= 0
z_4,24_ >= 0
z_1,25_ >= 0
z_2,25_ >= 0
z_3,25_ >= 0
z_4,25_ >= 0
t_1_ >= 0
t_2_ >= 0
t_3_ >= 0
C_1_ >= 0
C_2_ >= 0
C_3_ >= 0
C_4_ >= 0
C_5_ >= 0
C_6_ >= 0
C_7_ >= 0
C_8_ >= 0
C_9_ >= 0
C_10_ >= 0
C_11_ >= 0
C_12_ >= 0
C_13_ >= 0
C_14_ >= 0
C_15_ >= 0
C_16_ >= 0
C_17_ >= 0
C_18_ >= 0
C_19_ >= 0
C_20_ >= 0
C_21_ >= 0
C_22_ >= 0
C_23_ >= 0
C_24_ >= 0
C_25_ >= 0
Binary
x_1,2,1_
x_1,2,2_
x_1,2,3_
x_1,2,4_
x_1,2,5_
x_1,2,6_
x_1,2,7_
x_1,2,8_
x_1,2,9_
x_1,2,10_
x_1,2,11_
x_1,2,12_
x_1,2,13_
x_1,2,14_
x_1,2,15_
x_1,2,16_
x_1,2,17_
x_1,2,18_
x_1,2,19_
x_1,2,20_
x_1,2,21_
x_1,2,22_
x_1,2,23_
x_1,2,24_
x_1,2,25_
x_1,4,1_
x_1,4,2_
x_1,4,3_
x_1,4,4_
x_1,4,5_
x_1,4,6_
x_1,4,7_
x_1,4,8_
x_1,4,9_
x_1,4,10_
x_1,4,11_
x_1,4,12_
x_1,4,13_
x_1,4,14_
x_1,4,15_
x_1,4,16_
x_1,4,17_
x_1,4,18_
x_1,4,19_
x_1,4,20_
x_1,4,21_
x_1,4,22_
x_1,4,23_
x_1,4,24_
x_1,4,25_
x_2,3,1_
x_2,3,2_
x_2,3,3_
x_2,3,4_
x_2,3,5_
x_2,3,6_
x_2,3,7_
x_2,3,8_
x_2,3,9_
x_2,3,10_
x_2,3,11_
x_2,3,12_
x_2,3,13_
x_2,3,14_
x_2,3,15_
x_2,3,16_
x_2,3,17_
x_2,3,18_
x_2,3,19_
x_2,3,20_
x_2,3,21_
x_2,3,22_
x_2,3,23_
x_2,3,24_
x_2,3,25_
x_3,2,1_
x_3,2,2_
x_3,2,3_
x_3,2,4_
x_3,2,5_
x_3,2,6_
x_3,2,7_
x_3,2,8_
x_3,2,9_
x_3,2,10_
x_3,2,11_
x_3,2,12_
x_3,2,13_
x_3,2,14_
x_3,2,15_
x_3,2,16_
x_3,2,17_
x_3,2,18_
x_3,2,19_
x_3,2,20_
x_3,2,21_
x_3,2,22_
x_3,2,23_
x_3,2,24_
x_3,2,25_
x_3,4,1_
x_3,4,2_
x_3,4,3_
x_3,4,4_
x_3,4,5_
x_3,4,6_
x_3,4,7_
x_3,4,8_
x_3,4,9_
x_3,4,10_
x_3,4,11_
x_3,4,12_
x_3,4,13_
x_3,4,14_
x_3,4,15_
x_3,4,16_
x_3,4,17_
x_3,4,18_
x_3,4,19_
x_3,4,20_
x_3,4,21_
x_3,4,22_
x_3,4,23_
x_3,4,24_
x_3,4,25_
End
